120
150
49
54
54
56
56
47
48
54
54
59
59
42
49
51
50
52
53
58
46
59
46
49
42
46
40
60
54
49
45
48
51
42
51
47
51
55
57
44
51
51
54
54
53
50
44
45
51
53
55
49
43
60
44
56
54
47
60
55
45
54
48
48
49
51
52
52
47
43
57
54
52
42
60
48
49
58
59
59
59
49
55
42
50
51
48
44
40
51
51
56
56
54
59
49
42
49
41
45
54
47
43
45
42
51
43
42
54
55
48
47
54
41
52
54
40
44
54
59
42
60
